CPXPARAM_TimeLimit                               7200
CPXPARAM_Read_DataCheck                          1
CPXPARAM_Output_IntSolFilePrefix                 "solucoes/t_sol_ini_ID007M015J015_ZintTrue_manne_ub1181/sol"
Tried aggregator 1 time.
MIP Presolve eliminated 792 rows and 496 columns.
MIP Presolve modified 4772 coefficients.
Reduced MIP has 2583 rows, 1305 columns, and 7324 nonzeros.
Reduced MIP has 1079 binaries, 0 generals, 0 SOSs, and 0 indicators.
Presolve time = 0.00 sec. (6.24 ticks)
Probing fixed 61 vars, tightened 12 bounds.
Probing time = 0.05 sec. (47.85 ticks)
Tried aggregator 1 time.
MIP Presolve eliminated 62 rows and 61 columns.
MIP Presolve modified 133 coefficients.
Reduced MIP has 2521 rows, 1244 columns, and 7078 nonzeros.
Reduced MIP has 1018 binaries, 0 generals, 0 SOSs, and 0 indicators.
Presolve time = 0.00 sec. (3.87 ticks)
Probing time = 0.01 sec. (3.61 ticks)
Clique table members: 5206.
MIP emphasis: balance optimality and feasibility.
MIP search method: dynamic search.
Parallel mode: deterministic, using up to 8 threads.
Root relaxation solution time = 0.01 sec. (14.15 ticks)

        Nodes                                         Cuts/
   Node  Left     Objective  IInf  Best Integer    Best Bound    ItCnt     Gap

      0     0      983.0000   170                    983.0000      465         
      0     0      983.0000   141                   Cuts: 258      627         
      0     0      983.2717   177                   Cuts: 419      903         
      0     0      985.8713   176                   Cuts: 351     1084         
      0     0      991.6400   162                   Cuts: 143     1176         
      0     0      994.0036   168                    Cuts: 73     1248         
      0     0      997.1172   162                    Cuts: 41     1299         
      0     0      997.1172   164                    Cuts: 34     1349         
      0     0      997.1172   120                    Cuts: 29     1393         
      0     0      997.1172   124                   Cuts: 300     1525         
      0     2      997.1172   113                    997.2784     1525         
Elapsed time = 1.35 sec. (1100.48 ticks, tree = 0.01 MB, solutions = 0)
    399   154     1145.0000    63                   1028.0000    18233         
    922   448     1114.0000    97                   1041.0000    41600         
   1422   633    infeasible                         1052.0000    64909         
   2347   813     1137.0000    94                   1071.0000    89556         
   3011   907     1144.0000    68                   1083.0000   115753         
   3608  1079     1114.0000    72                   1088.0000   139522         
   4405  1260     1114.0000    87                   1099.0000   159706         
   5229  1247     1134.0000    88                   1100.0000   184878         
   5773  1173     1154.0000    66                   1109.0000   221854         
   8040  1010     1020.1239   114                   1124.0000   318394         
Elapsed time = 6.91 sec. (5397.24 ticks, tree = 1.15 MB, solutions = 0)
*  8605+  287                         1181.0000     1124.0000             4.83%
New incumbent written to file 'solucoes/t_sol_ini_ID007M015J015_ZintTrue_manne_ub1181/sol-00001.sol'.
   8672   292     1138.1852    92     1181.0000     1124.0000   354691    4.83%
   9982   647     1105.0000    99     1181.0000     1124.0000   426393    4.83%
  11060   509     1156.0000    49     1181.0000     1129.0494   513035    4.40%

GUB cover cuts applied:  1
Clique cuts applied:  1
Implied bound cuts applied:  50
Flow cuts applied:  39
Mixed integer rounding cuts applied:  198
Lift and project cuts applied:  5
Gomory fractional cuts applied:  26

Root node processing (before b&c):
  Real time             =    1.34 sec. (1099.56 ticks)
Parallel b&c, 8 threads:
  Real time             =   11.17 sec. (8098.46 ticks)
  Sync time (average)   =    1.84 sec.
  Wait time (average)   =    0.00 sec.
                          ------------
Total (root+branch&cut) =   12.51 sec. (9198.02 ticks)
